BAYES
324
2 2 2 2 2 2 2 2 2 2 2 2 2 2 2 2 2 2 2 2 2 2 2 2 2 2 2 2 2 2 2 2 2 2 2 2 2 2 2 2 2 2 2 2 2 2 2 2 2 2 2 2 2 2 2 2 2 2 2 2 2 2 2 2 2 2 2 2 2 2 2 2 2 2 2 2 2 2 2 2 2 2 2 2 2 2 2 2 2 2 2 2 2 2 2 2 2 2 2 2 2 2 2 2 2 2 2 2 2 2 2 2 2 2 2 2 2 2 2 2 2 2 2 2 2 2 2 2 2 2 2 2 2 2 2 2 2 2 2 2 2 2 2 2 2 2 2 2 2 2 2 2 2 2 2 2 2 2 2 2 2 2 2 2 2 2 2 2 2 2 2 2 2 2 2 2 2 2 2 2 2 2 2 2 2 2 2 2 2 2 2 2 2 2 2 2 2 2 2 2 2 2 2 2 2 2 2 2 2 2 2 2 2 2 2 2 2 2 2 2 2 2 2 2 2 2 2 2 2 2 2 2 2 2 2 2 2 2 2 2 2 2 2 2 2 2 2 2 2 2 2 2 2 2 2 2 2 2 2 2 2 2 2 2 2 2 2 2 2 2 2 2 2 2 2 2 2 2 2 2 2 2 2 2 2 2 2 2 2 2 2 2 2 2 2 2 2 2 2 2 2 2 2 2 2 2 2 2 2 2 2 2 2 2 2 2 2 2 2 2 2 2 2 2
324
1 0
2 0 1
2 1 2
2 2 3
2 3 4
2 4 5
2 5 6
2 6 7
2 7 8
2 8 9
2 9 10
2 10 11
2 11 12
2 12 13
2 13 14
2 14 15
2 15 16
2 16 17
2 0 18
3 1 18 19
3 2 19 20
3 3 20 21
3 4 21 22
3 5 22 23
3 6 23 24
3 7 24 25
3 8 25 26
3 9 26 27
3 10 27 28
3 11 28 29
3 12 29 30
3 13 30 31
3 14 31 32
3 15 32 33
3 16 33 34
3 17 34 35
2 18 36
3 19 36 37
3 20 37 38
3 21 38 39
3 22 39 40
3 23 40 41
3 24 41 42
3 25 42 43
3 26 43 44
3 27 44 45
3 28 45 46
3 29 46 47
3 30 47 48
3 31 48 49
3 32 49 50
3 33 50 51
3 34 51 52
3 35 52 53
2 36 54
3 37 54 55
3 38 55 56
3 39 56 57
3 40 57 58
3 41 58 59
3 42 59 60
3 43 60 61
3 44 61 62
3 45 62 63
3 46 63 64
3 47 64 65
3 48 65 66
3 49 66 67
3 50 67 68
3 51 68 69
3 52 69 70
3 53 70 71
2 54 72
3 55 72 73
3 56 73 74
3 57 74 75
3 58 75 76
3 59 76 77
3 60 77 78
3 61 78 79
3 62 79 80
3 63 80 81
3 64 81 82
3 65 82 83
3 66 83 84
3 67 84 85
3 68 85 86
3 69 86 87
3 70 87 88
3 71 88 89
2 72 90
3 73 90 91
3 74 91 92
3 75 92 93
3 76 93 94
3 77 94 95
3 78 95 96
3 79 96 97
3 80 97 98
3 81 98 99
3 82 99 100
3 83 100 101
3 84 101 102
3 85 102 103
3 86 103 104
3 87 104 105
3 88 105 106
3 89 106 107
2 90 108
3 91 108 109
3 92 109 110
3 93 110 111
3 94 111 112
3 95 112 113
3 96 113 114
3 97 114 115
3 98 115 116
3 99 116 117
3 100 117 118
3 101 118 119
3 102 119 120
3 103 120 121
3 104 121 122
3 105 122 123
3 106 123 124
3 107 124 125
2 108 126
3 109 126 127
3 110 127 128
3 111 128 129
3 112 129 130
3 113 130 131
3 114 131 132
3 115 132 133
3 116 133 134
3 117 134 135
3 118 135 136
3 119 136 137
3 120 137 138
3 121 138 139
3 122 139 140
3 123 140 141
3 124 141 142
3 125 142 143
2 126 144
3 127 144 145
3 128 145 146
3 129 146 147
3 130 147 148
3 131 148 149
3 132 149 150
3 133 150 151
3 134 151 152
3 135 152 153
3 136 153 154
3 137 154 155
3 138 155 156
3 139 156 157
3 140 157 158
3 141 158 159
3 142 159 160
3 143 160 161
2 144 162
3 145 162 163
3 146 163 164
3 147 164 165
3 148 165 166
3 149 166 167
3 150 167 168
3 151 168 169
3 152 169 170
3 153 170 171
3 154 171 172
3 155 172 173
3 156 173 174
3 157 174 175
3 158 175 176
3 159 176 177
3 160 177 178
3 161 178 179
2 162 180
3 163 180 181
3 164 181 182
3 165 182 183
3 166 183 184
3 167 184 185
3 168 185 186
3 169 186 187
3 170 187 188
3 171 188 189
3 172 189 190
3 173 190 191
3 174 191 192
3 175 192 193
3 176 193 194
3 177 194 195
3 178 195 196
3 179 196 197
2 180 198
3 181 198 199
3 182 199 200
3 183 200 201
3 184 201 202
3 185 202 203
3 186 203 204
3 187 204 205
3 188 205 206
3 189 206 207
3 190 207 208
3 191 208 209
3 192 209 210
3 193 210 211
3 194 211 212
3 195 212 213
3 196 213 214
3 197 214 215
2 198 216
3 199 216 217
3 200 217 218
3 201 218 219
3 202 219 220
3 203 220 221
3 204 221 222
3 205 222 223
3 206 223 224
3 207 224 225
3 208 225 226
3 209 226 227
3 210 227 228
3 211 228 229
3 212 229 230
3 213 230 231
3 214 231 232
3 215 232 233
2 216 234
3 217 234 235
3 218 235 236
3 219 236 237
3 220 237 238
3 221 238 239
3 222 239 240
3 223 240 241
3 224 241 242
3 225 242 243
3 226 243 244
3 227 244 245
3 228 245 246
3 229 246 247
3 230 247 248
3 231 248 249
3 232 249 250
3 233 250 251
2 234 252
3 235 252 253
3 236 253 254
3 237 254 255
3 238 255 256
3 239 256 257
3 240 257 258
3 241 258 259
3 242 259 260
3 243 260 261
3 244 261 262
3 245 262 263
3 246 263 264
3 247 264 265
3 248 265 266
3 249 266 267
3 250 267 268
3 251 268 269
2 252 270
3 253 270 271
3 254 271 272
3 255 272 273
3 256 273 274
3 257 274 275
3 258 275 276
3 259 276 277
3 260 277 278
3 261 278 279
3 262 279 280
3 263 280 281
3 264 281 282
3 265 282 283
3 266 283 284
3 267 284 285
3 268 285 286
3 269 286 287
2 270 288
3 271 288 289
3 272 289 290
3 273 290 291
3 274 291 292
3 275 292 293
3 276 293 294
3 277 294 295
3 278 295 296
3 279 296 297
3 280 297 298
3 281 298 299
3 282 299 300
3 283 300 301
3 284 301 302
3 285 302 303
3 286 303 304
3 287 304 305
2 288 306
3 289 306 307
3 290 307 308
3 291 308 309
3 292 309 310
3 293 310 311
3 294 311 312
3 295 312 313
3 296 313 314
3 297 314 315
3 298 315 316
3 299 316 317
3 300 317 318
3 301 318 319
3 302 319 320
3 303 320 321
3 304 321 322
3 305 322 323
2
0 1
4
1 0 1 0
4
1 0 0 1
4
1 0 1 0
4
0 1 1 0
4
0 1 1 0
4
0 1 1 0
4
1 0 0 1
4
1 0 1 0
4
0 1 0 1
4
0 1 0 1
4
1 0 1 0
4
0.7242441276808362 0.27575587231916376 0.7003432904469081 0.29965670955309187
4
0.5484622783280811 0.45153772167191886 0.7971464367859048 0.20285356321409523
4
1 0 1 0
4
0.4366295737277127 0.5633704262722873 0.43143108455073026 0.5685689154492698
4
0 1 0 1
4
0 1 1 0
4
0 1 0 1
8
0 1 0 1 0 1 1 0
8
1 0 0 1 0 1 0 1
8
0.7877480174050421 0.2122519825949579 0.635059887178247 0.3649401128217529 0.4728683402528568 0.5271316597471432 0.3006306420574539 0.6993693579425462
8
1 0 1 0 1 0 1 0
8
1 0 0 1 1 0 1 0
8
0 1 1 0 1 0 0 1
8
0 1 0 1 1 0 1 0
8
1 0 1 0 1 0 0 1
8
1 0 1 0 0 1 0 1
8
0 1 0 1 1 0 1 0
8
1 0 0 1 1 0 1 0
8
0 1 0 1 0 1 1 0
8
0 1 0 1 0 1 0 1
8
1 0 1 0 1 0 0 1
8
0.8594212168216149 0.14057878317838512 0.7901688795160033 0.2098311204839966 0.3090745435636248 0.6909254564363753 0.3131994852940261 0.686800514705974
8
1 0 1 0 0 1 0 1
8
1 0 1 0 0 1 1 0
4
1 0 0 1
8
1 0 0 1 1 0 0 1
8
0 1 0 1 1 0 1 0
8
1 0 0 1 0 1 1 0
8
1 0 1 0 0 1 1 0
8
0 1 1 0 1 0 0 1
8
1 0 0 1 0 1 0 1
8
1 0 0 1 1 0 1 0
8
0 1 0 1 0 1 0 1
8
0 1 1 0 1 0 1 0
8
0 1 0 1 1 0 1 0
8
0 1 0 1 1 0 0 1
8
1 0 1 0 1 0 0 1
8
0 1 0 1 0 1 1 0
8
1 0 0 1 1 0 0 1
8
0.2862565992761725 0.7137434007238276 0.3975058243922662 0.6024941756077338 0.8022201978336432 0.19777980216635685 0.26068868613322765 0.7393113138667723
8
0 1 1 0 1 0 1 0
8
0.31261628887132153 0.6873837111286785 0.436341610765765 0.563658389234235 0.4491466188601143 0.5508533811398857 0.20619197947719772 0.7938080205228023
4
0 1 0 1
8
0 1 0 1 1 0 1 0
8
0 1 0 1 1 0 0 1
8
0 1 1 0 1 0 0 1
8
1 0 1 0 0 1 0 1
8
1 0 0 1 0 1 1 0
8
0.6661328891979538 0.3338671108020463 0.38610946414423514 0.6138905358557648 0.6807249872165099 0.3192750127834901 0.4098308430778835 0.5901691569221166
8
1 0 0 1 0 1 1 0
8
1 0 1 0 1 0 0 1
8
1 0 1 0 0 1 1 0
8
0 1 1 0 0 1 0 1
8
0 1 0 1 1 0 1 0
8
0 1 1 0 1 0 0 1
8
0 1 0 1 0 1 0 1
8
0 1 0 1 0 1 0 1
8
0 1 1 0 1 0 1 0
8
1 0 0 1 0 1 1 0
8
0 1 1 0 1 0 0 1
4
0 1 1 0
8
1 0 0 1 1 0 0 1
8
0 1 0 1 0 1 0 1
8
1 0 0 1 1 0 0 1
8
1 0 0 1 1 0 0 1
8
0 1 1 0 1 0 1 0
8
0.5194054552227299 0.48059454477727004 0.2864063077869115 0.7135936922130884 0.6758490012800177 0.3241509987199824 0.46390612041060125 0.5360938795893987
8
1 0 1 0 0 1 0 1
8
1 0 1 0 1 0 1 0
8
1 0 0 1 0 1 0 1
8
0 1 0 1 1 0 0 1
8
1 0 0 1 0 1 1 0
8
1 0 0 1 1 0 0 1
8
1 0 1 0 0 1 1 0
8
0 1 0 1 1 0 1 0
8
1 0 0 1 0 1 0 1
8
0 1 1 0 1 0 0 1
8
1 0 0 1 0 1 1 0
4
0 1 1 0
8
1 0 0 1 1 0 1 0
8
0 1 1 0 0 1 1 0
8
0 1 0 1 1 0 1 0
8
0 1 0 1 1 0 1 0
8
1 0 0 1 0 1 0 1
8
1 0 0 1 0 1 1 0
8
0 1 1 0 0 1 0 1
8
0 1 1 0 1 0 0 1
8
0 1 1 0 0 1 1 0
8
1 0 0 1 1 0 0 1
8
1 0 0 1 1 0 1 0
8
0 1 0 1 0 1 1 0
8
1 0 1 0 1 0 0 1
8
1 0 1 0 1 0 1 0
8
1 0 0 1 1 0 1 0
8
1 0 1 0 0 1 1 0
8
0 1 1 0 1 0 1 0
4
0 1 1 0
8
0 1 1 0 0 1 0 1
8
1 0 0 1 1 0 1 0
8
0.29797021583966776 0.7020297841603322 0.37742759432335016 0.6225724056766497 0.3310006049108331 0.6689993950891668 0.26966702348591176 0.7303329765140881
8
0.6349766570158537 0.3650233429841463 0.3839950594451921 0.6160049405548079 0.4364020664761899 0.5635979335238102 0.682473232918053 0.31752676708194705
8
0 1 0 1 1 0 1 0
8
0 1 1 0 0 1 0 1
8
0 1 0 1 1 0 1 0
8
1 0 1 0 1 0 1 0
8
1 0 1 0 0 1 0 1
8
1 0 0 1 0 1 1 0
8
0 1 1 0 1 0 0 1
8
0.35166494589532515 0.648335054104675 0.16311438972314024 0.8368856102768598 0.4385231172398477 0.5614768827601523 0.6101164631674236 0.3898835368325765
8
1 0 1 0 0 1 1 0
8
0 1 1 0 1 0 0 1
8
0 1 0 1 0 1 0 1
8
1 0 0 1 0 1 0 1
8
0 1 0 1 0 1 1 0
4
0 1 1 0
8
1 0 0 1 1 0 0 1
8
1 0 1 0 0 1 1 0
8
1 0 1 0 1 0 1 0
8
0 1 0 1 1 0 1 0
8
1 0 1 0 0 1 1 0
8
0.5158776436008059 0.48412235639919404 0.9913575904896409 0.008642409510359139 0.7394124494302268 0.2605875505697733 0.49165331102015447 0.5083466889798455
8
1 0 1 0 0 1 1 0
8
1 0 0 1 0 1 1 0
8
0 1 1 0 1 0 0 1
8
0 1 1 0 0 1 0 1
8
1 0 0 1 0 1 0 1
8
0.568168918363913 0.431831081636087 0.3567984144280085 0.6432015855719915 0.6436773970073127 0.35632260299268725 0.49517688802302695 0.504823111976973
8
1 0 1 0 1 0 0 1
8
1 0 0 1 1 0 1 0
8
1 0 1 0 0 1 0 1
8
1 0 0 1 0 1 0 1
8
1 0 1 0 1 0 1 0
4
0 1 0 1
8
1 0 0 1 0 1 0 1
8
1 0 0 1 0 1 1 0
8
0 1 0 1 0 1 1 0
8
1 0 1 0 1 0 1 0
8
1 0 1 0 0 1 0 1
8
1 0 0 1 0 1 0 1
8
1 0 1 0 1 0 1 0
8
1 0 0 1 1 0 1 0
8
1 0 0 1 0 1 0 1
8
0.47785512913887174 0.5221448708611282 0.33709476600238014 0.6629052339976198 0.27644597815092853 0.7235540218490715 0.6365885378229588 0.3634114621770413
8
0 1 0 1 1 0 1 0
8
0.5393193070124248 0.460680692987575 0.35261296173375545 0.6473870382662447 0.07270802213716751 0.9272919778628325 0.5403648290107893 0.4596351709892107
8
1 0 0 1 1 0 0 1
8
0.6772974987219187 0.32270250127808126 0.38098326217889583 0.6190167378211042 0.53475234445173 0.46524765554827 0.32771225996794173 0.6722877400320583
8
0.4998761291524129 0.500123870847587 0.8082395374548965 0.1917604625451035 0.889679029069904 0.11032097093009599 0.2954461334815648 0.7045538665184352
8
1 0 0 1 0 1 0 1
8
0 1 1 0 0 1 0 1
4
0 1 0 1
8
1 0 0 1 0 1 1 0
8
0.04440229247686708 0.9555977075231329 0.3989559276396254 0.6010440723603747 0.21148841704486218 0.7885115829551378 0.5734378588049592 0.42656214119504077
8
1 0 0 1 0 1 1 0
8
1 0 1 0 0 1 0 1
8
0 1 1 0 0 1 0 1
8
0.4713866274850679 0.5286133725149322 0.6528816731012033 0.34711832689879685 0.46506896952584026 0.5349310304741596 0.3852506306238008 0.6147493693761992
8
0 1 1 0 1 0 0 1
8
0 1 1 0 0 1 1 0
8
0 1 0 1 0 1 0 1
8
1 0 1 0 1 0 1 0
8
1 0 1 0 0 1 0 1
8
0 1 0 1 0 1 1 0
8
1 0 1 0 1 0 0 1
8
0 1 1 0 1 0 0 1
8
0 1 1 0 1 0 1 0
8
1 0 0 1 0 1 0 1
8
0 1 1 0 1 0 1 0
4
0 1 0 1
8
0 1 1 0 1 0 1 0
8
0 1 0 1 0 1 1 0
8
0 1 0 1 1 0 1 0
8
1 0 1 0 0 1 1 0
8
0 1 0 1 1 0 0 1
8
0 1 1 0 0 1 1 0
8
1 0 0 1 0 1 0 1
8
1 0 1 0 1 0 1 0
8
0 1 1 0 0 1 0 1
8
0.6495511994913404 0.3504488005086595 0.4667026742629661 0.5332973257370339 0.24115420907526441 0.7588457909247356 0.7543898661622775 0.2456101338377224
8
0.7429916494575707 0.25700835054242915 0.39529317509436007 0.6047068249056399 0.5153406600015281 0.4846593399984719 0.3755600365383058 0.6244399634616943
8
1 0 1 0 1 0 0 1
8
1 0 0 1 1 0 1 0
8
0 1 0 1 1 0 0 1
8
0.33232113757524034 0.6676788624247597 0.6965676503586626 0.3034323496413374 0.32420712285488573 0.6757928771451143 0.5018784524893493 0.4981215475106508
8
1 0 1 0 1 0 1 0
8
1 0 0 1 0 1 0 1
4
1 0 0 1
8
0 1 1 0 1 0 0 1
8
0 1 1 0 0 1 0 1
8
1 0 1 0 0 1 1 0
8
1 0 1 0 0 1 0 1
8
0 1 0 1 0 1 1 0
8
0 1 1 0 1 0 1 0
8
0 1 1 0 1 0 0 1
8
0.548797175427906 0.4512028245720941 0.7984292381631622 0.20157076183683773 0.20037130334524747 0.7996286966547526 0.3898350011561472 0.6101649988438527
8
0 1 1 0 0 1 1 0
8
0 1 1 0 1 0 1 0
8
1 0 0 1 1 0 0 1
8
1 0 0 1 1 0 1 0
8
0 1 1 0 1 0 0 1
8
1 0 1 0 0 1 0 1
8
1 0 0 1 0 1 0 1
8
0 1 0 1 0 1 1 0
8
0 1 1 0 0 1 0 1
4
1 0 1 0
8
0 1 0 1 0 1 0 1
8
0 1 0 1 1 0 1 0
8
0 1 0 1 0 1 0 1
8
0.8971027071407488 0.10289729285925128 0.6789408856724084 0.3210591143275916 0.6164289180577335 0.38357108194226663 0.7172484356385906 0.2827515643614093
8
1 0 0 1 1 0 0 1
8
0 1 0 1 0 1 1 0
8
0 1 0 1 1 0 0 1
8
1 0 1 0 1 0 1 0
8
1 0 0 1 1 0 1 0
8
0 1 1 0 0 1 0 1
8
1 0 1 0 0 1 1 0
8
0 1 0 1 0 1 1 0
8
1 0 1 0 0 1 1 0
8
0 1 1 0 1 0 0 1
8
0 1 0 1 1 0 0 1
8
0 1 1 0 1 0 1 0
8
1 0 1 0 1 0 1 0
4
0 1 0 1
8
0.3915221540996166 0.6084778459003833 0.38626562831723266 0.6137343716827672 0.8268513269895407 0.1731486730104593 0.7498566524059724 0.2501433475940275
8
0 1 1 0 1 0 1 0
8
1 0 0 1 1 0 1 0
8
1 0 0 1 0 1 1 0
8
1 0 1 0 1 0 1 0
8
0 1 0 1 0 1 0 1
8
0 1 0 1 1 0 0 1
8
1 0 1 0 1 0 1 0
8
1 0 1 0 0 1 0 1
8
0 1 1 0 0 1 0 1
8
1 0 1 0 0 1 1 0
8
0 1 1 0 0 1 0 1
8
0 1 0 1 0 1 1 0
8
1 0 0 1 0 1 0 1
8
0.22795724650748805 0.7720427534925121 0.4183511103238327 0.5816488896761673 0.6218013395964065 0.37819866040359357 0.47959608871964465 0.5204039112803553
8
1 0 1 0 1 0 0 1
8
1 0 0 1 1 0 1 0
4
1 0 1 0
8
0.9294595972809965 0.07054040271900353 0.48323472424350444 0.5167652757564956 0.7611039116454753 0.23889608835452472 0.3952535362600988 0.6047464637399013
8
1 0 0 1 1 0 1 0
8
1 0 1 0 0 1 1 0
8
0 1 0 1 1 0 0 1
8
0 1 1 0 1 0 1 0
8
1 0 0 1 0 1 0 1
8
1 0 1 0 1 0 1 0
8
1 0 1 0 1 0 0 1
8
0 1 0 1 0 1 0 1
8
0 1 1 0 1 0 1 0
8
1 0 1 0 1 0 1 0
8
1 0 0 1 0 1 1 0
8
0 1 0 1 0 1 1 0
8
0 1 1 0 0 1 0 1
8
1 0 0 1 0 1 1 0
8
1 0 0 1 1 0 1 0
8
1 0 0 1 1 0 1 0
4
0 1 0 1
8
0 1 0 1 1 0 1 0
8
0 1 0 1 1 0 1 0
8
1 0 0 1 0 1 1 0
8
0 1 0 1 0 1 0 1
8
0 1 0 1 1 0 0 1
8
0 1 0 1 0 1 0 1
8
0 1 0 1 0 1 0 1
8
1 0 1 0 1 0 0 1
8
0 1 1 0 0 1 1 0
8
0.8957336702376315 0.10426632976236848 0.6019800011203257 0.3980199988796743 0.2757942989799816 0.7242057010200185 0.22801934051015832 0.7719806594898417
8
0 1 1 0 0 1 0 1
8
1 0 1 0 0 1 0 1
8
0 1 0 1 0 1 0 1
8
0 1 0 1 1 0 0 1
8
0 1 1 0 1 0 1 0
8
1 0 1 0 0 1 1 0
8
1 0 0 1 0 1 1 0
4
1 0 1 0
8
0 1 0 1 1 0 1 0
8
1 0 1 0 1 0 1 0
8
1 0 0 1 1 0 0 1
8
0 1 0 1 0 1 0 1
8
0 1 1 0 1 0 1 0
8
1 0 0 1 1 0 0 1
8
1 0 0 1 1 0 1 0
8
0 1 1 0 0 1 1 0
8
0.023676801682226904 0.9763231983177731 0.1734370949719046 0.8265629050280954 0.5872662893597524 0.4127337106402475 0.6177895675597977 0.38221043244020225
8
0 1 1 0 0 1 1 0
8
0 1 0 1 1 0 0 1
8
0 1 1 0 0 1 0 1
8
0 1 1 0 0 1 1 0
8
0.7885496881088455 0.21145031189115437 0.5796605325645993 0.4203394674354007 0.41782437963319896 0.582175620366801 0.5769497221115282 0.4230502778884719
8
0 1 1 0 0 1 1 0
8
0 1 1 0 0 1 0 1
8
0 1 1 0 1 0 1 0
4
0 1 0 1
8
0 1 0 1 0 1 0 1
8
0 1 1 0 0 1 1 0
8
1 0 1 0 0 1 0 1
8
0 1 1 0 0 1 1 0
8
1 0 0 1 0 1 1 0
8
0 1 0 1 0 1 0 1
8
0.9856344257301775 0.014365574269822582 0.3770180557329719 0.6229819442670281 0.8112482546898221 0.18875174531017794 0.18265010253904657 0.8173498974609533
8
1 0 0 1 0 1 1 0
8
0 1 1 0 1 0 0 1
8
1 0 1 0 1 0 1 0
8
0 1 0 1 0 1 1 0
8
1 0 1 0 1 0 1 0
8
0.2793973076282948 0.7206026923717052 0.7164975478990563 0.2835024521009437 0.49732336574716185 0.502676634252838 0.12785557992576913 0.8721444200742309
8
1 0 1 0 0 1 1 0
8
0 1 1 0 1 0 1 0
8
1 0 0 1 1 0 0 1
8
0 1 0 1 0 1 0 1
